N = 10;
H = 6;
T = 2;

avail = array3d(1..N, 1..H, 1..T, [6, 1, 10, 0, 8, 2, 3, 2, 0, 4, 2, 9, 9, 8, 7, 0, 7, 2, 0, 0, 2, 0, 0, 7, 4, 10, 8, 0, 4, 10, 7, 4, 6, 9, 8, 7, 2, 1, 1, 3, 7, 2, 1, 6, 8, 5, 7, 8, 9, 6, 3, 3, 10, 7, 0, 0, 3, 2, 10, 9, 7, 10, 0, 1, 0, 10, 8, 8, 9, 7, 9, 7, 3, 0, 10, 9, 4, 7, 8, 5, 5, 4, 5, 7, 3, 10, 8, 7, 7, 5, 1, 1, 4, 4, 6, 0, 5, 10, 0, 0, 4, 8, 2, 3, 4, 9, 7, 6, 8, 7, 0, 8, 8, 0, 4, 4, 3, 7, 8, 10]);

r = array2d(1..H, 1..T, [1, 3, 4, 2, 2, 2, 2, 3, 3, 4, 4, 4]);
